
Gurobi 9.1.1 (mac64, gurobi_cl) logging started Sat Feb 27 19:38:45 2021

Academic license - for non-commercial use only - expires 2021-04-06
Using license file /Users/agnese/gurobi.lic
Set parameter LogFile to value gurobi.log

Gurobi Optimizer version 9.1.1 build v9.1.1rc0 (mac64)
Copyright (c) 2020, Gurobi Optimization, LLC

Read LP format model from file /Users/agnese/Documents/KTH-Work/GitHub_repositories/KTH-dESA/GLUCOSE/results/FINAL_2060/Total/cplex_REMaxCap+HPLL/gurobi/GLUCOSE_FinalTotal_REMaxCap+HPLL.lp
Reading time = 0.44 seconds
cost: 55953 rows, 46410 columns, 511722 nonzeros
Thread count: 2 physical cores, 4 logical processors, using up to 4 threads
Optimize a model with 55953 rows, 46410 columns and 511722 nonzeros
Model fingerprint: 0x6809cfa3
Coefficient statistics:
  Matrix range     [2e-08, 6e+03]
  Objective range  [7e-08, 4e+11]
  Bounds range     [0e+00, 0e+00]
  RHS range        [1e-04, 1e+06]
Warning: Model contains large objective coefficients
         Consider reformulating model or setting NumericFocus parameter
         to avoid numerical issues.

Concurrent LP optimizer: dual simplex and barrier
Showing barrier log only...

Presolve removed 30245 rows and 28132 columns
Presolve time: 0.20s
Presolved: 25708 rows, 18479 columns, 350759 nonzeros

Ordering time: 0.64s

Barrier statistics:
 AA' NZ     : 1.296e+06
 Factor NZ  : 7.232e+06 (roughly 80 MBytes of memory)
 Factor Ops : 5.673e+09 (less than 1 second per iteration)
 Threads    : 1

                  Objective                Residual
Iter       Primal          Dual         Primal    Dual     Compl     Time
   0   5.03788355e+20 -3.78312836e+17  9.31e+08 2.08e+12  3.51e+16     2s
   1   2.71147749e+20 -5.07266402e+17  9.15e+08 1.98e+12  3.42e+16     2s
   2   2.65510924e+20 -8.73120954e+17  6.85e+08 1.77e+12  2.80e+16     3s
   3   1.25823197e+20 -3.20877016e+18  2.84e+08 5.99e+11  1.41e+16     3s
   4   3.65614943e+19 -3.78970880e+18  8.19e+07 6.61e+10  4.49e+15     4s
   5   2.42267934e+18 -3.04817626e+18  5.32e+06 3.25e+07  3.47e+14     5s
   6   9.14187989e+17 -1.87175741e+18  2.03e+06 1.11e+07  1.41e+14     5s
   7   5.20981229e+17 -1.22576765e+18  1.12e+06 4.37e+06  7.84e+13     6s
   8   8.32358821e+16 -4.76224872e+17  1.80e+05 7.01e+05  1.79e+13     7s
   9   1.95649204e+16 -1.34876649e+17  4.10e+04 1.47e+05  4.60e+12     8s
  10   6.08814915e+15 -4.07253348e+16  1.23e+04 3.75e+04  1.43e+12     8s
  11   7.91046383e+14 -7.48534298e+15  1.26e+03 4.15e+03  2.21e+11     9s
  12   1.18748177e+14 -1.26831378e+15  1.43e+02 2.95e+02  3.40e+10    10s
  13   3.39982375e+13 -4.43734318e+14  2.32e+01 8.86e+01  1.07e+10    11s
  14   1.19143331e+13 -1.60599769e+14  3.32e+00 2.77e+01  3.76e+09    11s
  15   6.78309480e+11 -1.24071547e+13  1.33e-01 1.03e+00  2.71e+08    12s
  16   3.45691478e+10 -4.84919771e+11  4.07e-04 1.07e-02  1.06e+07    13s
  17   9.28705434e+09 -1.86006478e+11  5.32e-05 3.91e-03  4.00e+06    13s
  18   2.68112027e+09 -9.70909772e+09  2.32e-09 7.32e-04  2.53e+05    14s
  19   1.05777657e+09 -2.00097028e+08  1.45e-09 2.44e-04  2.57e+04    15s
  20   5.57170528e+08  3.85567398e+08  8.37e-09 2.44e-04  3.51e+03    16s
  21   5.05907661e+08  4.98683713e+08  4.12e-08 4.88e-04  1.48e+02    17s
  22   5.02071000e+08  5.01283968e+08  2.26e-09 4.88e-04  1.61e+01    18s
  23   5.01944268e+08  5.01717672e+08  2.56e-09 2.44e-04  4.64e+00    19s
  24   5.01909503e+08  5.01784059e+08  4.79e-09 2.44e-04  2.57e+00    19s
  25   5.01887230e+08  5.01813709e+08  2.37e-09 2.44e-04  1.50e+00    20s
  26   5.01872198e+08  5.01848433e+08  2.91e-08 2.44e-04  4.86e-01    21s
  27   5.01867286e+08  5.01855169e+08  2.70e-08 2.44e-04  2.48e-01    22s
  28   5.01864152e+08  5.01858660e+08  5.84e-09 2.44e-04  1.12e-01    23s
  29   5.01862972e+08  5.01861118e+08  9.26e-08 4.88e-04  3.79e-02    24s
  30   5.01862322e+08  5.01861749e+08  9.37e-08 2.44e-04  1.18e-02    25s
  31   5.01862065e+08  5.01862021e+08  3.64e-09 4.88e-04  9.86e-04    26s
  32   5.01862054e+08  5.01862029e+08  1.86e-09 4.88e-04  5.61e-04    27s
  33   5.01862047e+08  5.01862037e+08  2.85e-09 2.44e-04  2.37e-04    28s
  34   5.01862042e+08  5.01862040e+08  1.75e-08 2.44e-04  2.42e-05    29s
  35   5.01862041e+08  5.01862041e+08  6.57e-09 2.44e-04  2.31e-06    30s
  36   5.01862041e+08  5.01862041e+08  5.18e-09 2.44e-04  7.20e-07    31s
  37   5.01862041e+08  5.01862041e+08  6.75e-07 2.44e-04  3.77e-07    32s

Barrier solved model in 37 iterations and 31.63 seconds
Optimal objective 5.01862041e+08

Crossover log...

    6683 DPushes remaining with DInf 0.0000000e+00                32s
       0 DPushes remaining with DInf 0.0000000e+00                32s

    6846 PPushes remaining with PInf 6.7169911e-03                32s
       0 PPushes remaining with PInf 1.9222074e-03                33s

  Push phase complete: Pinf 1.9222074e-03, Dinf 1.3304008e+04     33s

Iteration    Objective       Primal Inf.    Dual Inf.      Time
   10776    5.0186204e+08   0.000000e+00   1.330401e+04     33s
Extra simplex iterations after uncrush: 11
   11275    5.0186204e+08   0.000000e+00   0.000000e+00     34s

Solved with barrier
Solved in 11275 iterations and 33.57 seconds
Optimal objective  5.018620410e+08

Wrote result file 'Total_gurobi.sol'
Wrote result file 'Total_gurobi.json'

